32      4       
10      10      10      10      
0       0       0       0       0       2       2       3       
7       1       1       0       1       2       4       7       
5       1       2       0       8       2       4       7       
4       5       3       0       4       2       5       6       
8       8       4       0       5       3       8       9       13      
2       0       5       1       5       3       8       9       13      
2       5       0       6       4       2       8       13      
4       7       3       0       4       1       10      
8       6       4       7       0       1       10      
5       2       0       4       2       1       11      
2       10      2       0       4       2       12      14      
1       0       2       3       2       2       15      16      
1       3       6       0       3       1       14      
3       0       4       5       4       1       15      
7       0       4       7       6       2       17      18      
1       3       7       4       0       2       17      18      
4       4       4       6       0       3       19      20      23      
10      6       4       0       2       3       19      20      23      
7       2       4       3       0       2       21      22      
1       2       0       6       3       2       22      25      
1       2       5       0       2       3       24      25      26      
9       3       0       5       4       2       24      26      
2       5       0       4       8       2       24      26      
10      0       3       3       3       2       27      31      
10      4       2       3       0       2       27      31      
5       0       4       1       3       1       27      
1       0       7       5       5       1       28      
7       3       4       0       4       2       29      30      
9       0       8       1       5       1       32      
5       0       4       4       5       1       32      
1       2       0       2       4       1       32      
0       0       0       0       0       0       
